(declare-const v0 Bool)
(declare-const v1 Bool)
(declare-const v2 Bool)
(declare-const v3 Bool)
(declare-const v4 Bool)
(assert (edge (or v1 (not v0)) (or v0 v2)))
(assert (edge v2 (or v0 (not v2))))
(assert (edge (or (not v1) (not v3) v4) (or v1 (not v2))))
(assert (edge (or v0 v1) (or v0 (not v4) (not v2))))
(assert (edge (not v0) (or v0 v3 v4)))
(assert (not (edge (not v1) (or v3 (not v0)))))